c Sudoku solution
p cnf 729 0
112 0
156 0
227 0
249 0
285 0
318 0
339 0
365 0
377 0
396 0
483 0
499 0
533 0
568 0
592 0
624 0
675 0
757 0
829 0
842 0
858 0
148 0
167 0
866 0
881 0
911 0
936 0
216 0
945 0
963 0
873 0
713 0
814 0
837 0
895 0
184 0
382 0
179 0
234 0
794 0
741 0
769 0
954 0
989 0
997 0
344 0
643 0
686 0
587 0
447 0
546 0
426 0
415 0
519 0
521 0
617 0
555 0
574 0
323 0
131 0
125 0
193 0
253 0
262 0
351 0
735 0
452 0
659 0
464 0
661 0
471 0
698 0
438 0
632 0
278 0
291 0
776 0
972 0
788 0
722 0
928 0
